qbf_easy_train/easy_3180_UNSAT.qdimacs
p cnf 49 147
a 48 20 14 0
e 1 2 3 4 5 6 7 8 9 10 11 12 13 15 16 17 18 19 21 22 23 24 25 26 27 28 29 30 31 32 33 34 35 36 37 38 39 40 41 42 43 44 45 46 47 49 0
1 -2 -3 0
-1 2 -3 0
1 2 3 0
-1 -2 3 0
-4 3 0
-4 1 0
-3 -1 4 0
8 6 0
8 7 0
-6 -7 -8 0
-9 -8 0
-9 8 0
5 -9 -10 0
-5 9 -10 0
5 9 10 0
-5 -9 10 0
11 4 0
11 10 0
-4 -10 -11 0
-13 12 0
-13 5 0
-12 -5 13 0
-14 6 0
-14 13 0
-6 -13 14 0
-15 -14 0
-15 -8 0
14 8 15 0
-15 6 -16 0
15 -6 -16 0
-15 -6 16 0
15 6 16 0
17 -14 0
17 -16 0
14 16 -17 0
-18 3 0
-18 17 0
-3 -17 18 0
18 6 -19 0
-18 -6 -19 0
18 -6 19 0
-18 6 19 0
-11 19 -20 0
11 -19 -20 0
-11 -19 20 0
11 19 20 0
-16 -10 -21 0
16 10 -21 0
-16 10 21 0
16 -10 21 0
22 -17 0
22 21 0
17 -21 -22 0
-23 15 0
-23 13 0
-15 -13 23 0
24 22 0
24 -23 0
-22 23 -24 0
-26 13 0
-26 25 0
-13 -25 26 0
-27 -26 0
-27 3 0
26 -3 27 0
-12 -27 -28 0
12 27 -28 0
-12 27 28 0
12 -27 28 0
29 -2 0
29 -5 0
2 5 -29 0
30 -29 0
30 25 0
29 -25 -30 0
-1 30 -31 0
1 -30 -31 0
-1 -30 31 0
1 30 31 0
-32 28 0
-32 31 0
-28 -31 32 0
24 32 -33 0
-24 -32 -33 0
24 -32 33 0
-24 32 33 0
-34 20 0
-34 -33 0
-20 33 34 0
35 6 0
35 -3 0
-6 3 -35 0
-36 -35 0
-36 -7 0
35 7 36 0
-37 -34 0
-37 -36 0
34 36 37 0
-13 29 -38 0
13 -29 -38 0
-13 -29 38 0
13 29 38 0
39 -4 0
39 -38 0
4 38 -39 0
40 -35 0
40 9 0
35 -9 -40 0
-41 21 0
-41 -40 0
-21 40 41 0
43 -41 0
43 -42 0
41 42 -43 0
-44 7 0
-44 -38 0
-7 38 44 0
-45 -38 0
-45 1 0
38 -1 45 0
-46 44 0
-46 45 0
-44 -45 46 0
43 46 -47 0
-43 -46 -47 0
43 -46 47 0
-43 46 47 0
48 -39 0
48 -47 0
39 47 -48 0
49 -37 0
49 -48 0
37 48 -49 0
-21 14 29 15 -34 8 -25 0
17 -8 7 27 -49 0
-47 -20 15 40 38 0
27 2 29 -34 37 6 38 0
32 -42 24 -15 49 -2 0
28 49 -26 44 -43 36 0
17 9 24 -27 2 15 49 0
14 38 6 12 30 0
-32 39 -24 38 -40 -35 -7 0
-24 -43 -34 41 33 0
11 37 -23 0
-8 44 0
-1 -32 -27 0
49 0
