sat_easy_train/easy_3180_UNSAT.dimacs
p cnf 117 384
3 1 0
3 2 0
-1 -2 -3 0
-6 -4 0
-6 5 0
4 -5 6 0
-3 6 -7 0
3 -6 -7 0
-3 -6 7 0
3 6 7 0
9 -8 0
9 5 0
8 -5 -9 0
10 -2 0
10 -9 0
2 9 -10 0
-10 -11 -12 0
10 11 -12 0
-10 11 12 0
10 -11 12 0
12 -10 -13 0
-12 10 -13 0
12 10 13 0
-12 -10 13 0
15 14 0
15 9 0
-14 -9 -15 0
-8 -16 -17 0
8 16 -17 0
-8 16 17 0
8 -16 17 0
-9 -17 -18 0
9 17 -18 0
-9 17 18 0
9 -17 18 0
15 18 -19 0
-15 -18 -19 0
15 -18 19 0
-15 18 19 0
-20 -13 0
-20 -19 0
13 19 20 0
-22 -21 0
-22 -8 0
21 8 22 0
-23 17 0
-23 -22 0
-17 22 23 0
-24 22 0
-24 23 0
-22 -23 24 0
25 -2 0
25 -24 0
2 24 -25 0
-26 25 0
-26 21 0
-25 -21 26 0
-27 -20 0
-27 26 0
20 -26 27 0
28 7 0
28 -27 0
-7 27 -28 0
-30 9 0
-30 -29 0
-9 29 30 0
-32 -30 0
-32 -31 0
30 31 32 0
34 -11 0
34 -33 0
11 33 -34 0
-35 -34 0
-35 11 0
34 -11 35 0
32 -35 -36 0
-32 35 -36 0
32 35 36 0
-32 -35 36 0
37 2 0
37 35 0
-2 -35 -37 0
39 38 0
39 38 0
-38 -39 0
-37 -39 -40 0
37 39 -40 0
-37 39 40 0
37 -39 40 0
41 -6 -42 0
-41 6 -42 0
41 6 42 0
-41 -6 42 0
43 40 0
43 -42 0
-40 42 -43 0
-44 36 0
-44 43 0
-36 -43 44 0
32 1 -45 0
-32 -1 -45 0
32 -1 45 0
-32 1 45 0
-46 -1 0
-46 39 0
1 -39 46 0
-47 -45 0
-47 -46 0
45 46 47 0
48 38 0
48 22 0
-38 -22 -48 0
-47 -48 -49 0
47 48 -49 0
-47 48 49 0
47 -48 49 0
50 -14 0
50 -8 0
14 8 -50 0
52 50 0
52 51 0
-50 -51 -52 0
-53 -49 0
-53 52 0
49 -52 53 0
-54 -44 0
-54 -53 0
44 53 54 0
55 -35 0
55 14 0
35 -14 -55 0
-56 23 0
-56 55 0
-23 -55 56 0
-57 -14 0
-57 -11 0
14 11 57 0
57 -3 -58 0
-57 3 -58 0
57 3 58 0
-57 -3 58 0
-56 -58 -59 0
56 58 -59 0
-56 58 59 0
56 -58 59 0
-57 -29 -60 0
57 29 -60 0
-57 29 60 0
57 -29 60 0
-61 37 0
-61 -60 0
-37 60 61 0
12 -61 -62 0
-12 61 -62 0
12 61 62 0
-12 -61 62 0
-63 -4 0
-63 -14 0
4 14 63 0
62 -63 -64 0
-62 63 -64 0
62 63 64 0
-62 -63 64 0
-65 59 0
-65 -64 0
-59 64 65 0
-66 54 0
-66 65 0
-54 -65 66 0
67 -8 0
67 -8 0
8 -67 0
-68 -57 0
-68 -35 0
57 35 68 0
68 5 -69 0
-68 -5 -69 0
68 -5 69 0
-68 5 69 0
71 -5 0
71 70 0
5 -70 -71 0
72 11 0
72 -21 0
-11 21 -72 0
73 35 0
73 -18 0
-35 18 -73 0
74 -72 0
74 -73 0
72 73 -74 0
75 -71 0
75 74 0
71 -74 -75 0
76 -69 0
76 -75 0
69 75 -76 0
77 -67 0
77 76 0
67 -76 -77 0
-78 33 0
-78 68 0
-33 -68 78 0
-79 -2 0
-79 78 0
2 -78 79 0
-80 -21 0
-80 -9 0
21 9 80 0
-81 -79 0
-81 -80 0
79 80 81 0
-82 30 0
-82 -1 0
-30 1 82 0
83 1 0
83 -82 0
-1 82 -83 0
-84 4 0
-84 22 0
-4 -22 84 0
-83 -84 -85 0
83 84 -85 0
-83 84 85 0
83 -84 85 0
-81 -85 -86 0
81 85 -86 0
-81 85 86 0
81 -85 86 0
87 24 0
87 22 0
-24 -22 -87 0
-88 16 0
-88 -34 0
-16 34 88 0
-61 88 -89 0
61 -88 -89 0
-61 -88 89 0
61 88 89 0
73 89 -90 0
-73 -89 -90 0
73 -89 90 0
-73 89 90 0
91 -90 0
91 71 0
90 -71 -91 0
92 -87 0
92 -91 0
87 91 -92 0
-9 -93 0
9 -93 0
94 29 0
94 70 0
-29 -70 -94 0
94 -5 -95 0
-94 5 -95 0
94 5 95 0
-94 -5 95 0
96 93 0
96 -95 0
-93 95 -96 0
92 -96 -97 0
-92 96 -97 0
92 96 97 0
-92 -96 97 0
-98 -86 0
-98 97 0
86 -97 98 0
-2 -11 -99 0
2 11 -99 0
-2 11 99 0
2 -11 99 0
100 -2 0
100 32 0
2 -32 -100 0
99 -100 -101 0
-99 100 -101 0
99 100 101 0
-99 -100 101 0
102 -98 0
102 101 0
98 -101 -102 0
103 -77 0
103 102 0
77 -102 -103 0
-104 -3 0
-104 6 0
3 -6 104 0
-105 -19 0
-105 -104 0
19 104 105 0
55 -51 -106 0
-55 51 -106 0
55 51 106 0
-55 -51 106 0
-74 -106 -107 0
74 106 -107 0
-74 106 107 0
74 -106 107 0
70 14 -108 0
-70 -14 -108 0
70 -14 108 0
-70 14 108 0
-6 -90 -109 0
6 90 -109 0
-6 90 109 0
6 -90 109 0
110 -108 0
110 -109 0
108 109 -110 0
111 -107 0
111 -110 0
107 110 -111 0
112 -105 0
112 -111 0
105 111 -112 0
113 32 0
113 -9 0
-32 9 -113 0
-112 113 -114 0
112 -113 -114 0
-112 -113 114 0
112 113 114 0
-115 103 0
-115 -114 0
-103 114 115 0
66 115 -116 0
-66 -115 -116 0
66 -115 116 0
-66 115 116 0
117 28 0
117 -116 0
-28 116 -117 0
-90 91 0
-13 114 35 -53 0
116 15 77 0
73 -57 0
-96 101 25 -40 -103 43 0
77 -79 94 0
-32 58 -45 0
47 -105 -26 0
-98 -85 -101 112 74 0
-84 -57 45 101 -55 0
-100 110 -71 0
-45 -1 68 60 6 0
58 98 52 -11 0
77 36 -71 -99 -20 0
102 101 0
59 -7 53 0
-14 -109 1 -9 -4 0
-94 16 37 50 11 38 0
28 -17 78 0
47 -71 34 0
-103 -111 0
45 98 17 104 95 73 0
85 110 1 -92 -64 -54 0
79 111 80 -81 0
-64 -28 0
94 -1 47 78 0
-20 -89 83 73 15 0
-117 6 -29 63 0
32 -111 -50 -104 82 -106 0
44 -12 68 4 36 0
-39 -64 -34 -48 0
35 67 0
-63 17 60 -51 0
53 89 -9 -72 0
68 -13 -2 -93 0
-112 -116 52 -21 12 0
40 82 105 51 0
-21 17 -79 -9 0
87 -16 109 0
-53 -34 0
-46 104 0
76 -82 49 -66 -44 72 0
-5 -43 0
62 -36 -117 -82 0
61 10 0
-98 -99 3 83 -35 -36 0
-17 -1 38 91 -66 104 0
-103 -78 -92 70 0
24 39 -83 101 72 0
-71 -102 26 -17 -62 -75 0
117 0
